p cnf 100 315
11 12 13 14 15 16 17 18 19 20 0
21 22 23 24 25 26 27 28 29 30 0
31 32 33 34 35 36 37 38 39 40 0
-11 -21 0
-12 -22 0
-13 -23 0
-14 -24 0
-15 -25 0
-16 -26 0
-17 -27 0
-18 -28 0
-19 -29 0
-20 -30 0
-11 -31 0
-12 -32 0
-13 -33 0
-14 -34 0
-15 -35 0
-16 -36 0
-17 -37 0
-18 -38 0
-19 -39 0
-20 -40 0
-21 -11 0
-22 -12 0
-23 -13 0
-24 -14 0
-25 -15 0
-26 -16 0
-27 -17 0
-28 -18 0
-29 -19 0
-30 -20 0
-21 -31 0
-22 -32 0
-23 -33 0
-24 -34 0
-25 -35 0
-26 -36 0
-27 -37 0
-28 -38 0
-29 -39 0
-30 -40 0
-31 -11 0
-32 -12 0
-33 -13 0
-34 -14 0
-35 -15 0
-36 -16 0
-37 -17 0
-38 -18 0
-39 -19 0
-40 -20 0
-31 -21 0
-32 -22 0
-33 -23 0
-34 -24 0
-35 -25 0
-36 -26 0
-37 -27 0
-38 -28 0
-39 -29 0
-40 -30 0
-11 -23 0
-11 -24 0
-11 -27 0
-11 -30 0
-12 -23 0
-12 -29 0
-12 -30 0
-13 -21 0
-13 -22 0
-13 -25 0
-13 -27 0
-13 -28 0
-13 -29 0
-14 -21 0
-14 -26 0
-14 -30 0
-15 -23 0
-15 -26 0
-15 -28 0
-15 -29 0
-16 -24 0
-16 -25 0
-16 -27 0
-17 -21 0
-17 -23 0
-17 -26 0
-17 -28 0
-17 -29 0
-17 -30 0
-18 -23 0
-18 -25 0
-18 -27 0
-18 -29 0
-19 -22 0
-19 -23 0
-19 -25 0
-19 -27 0
-19 -28 0
-20 -21 0
-20 -22 0
-20 -24 0
-20 -27 0
-11 -33 0
-11 -34 0
-11 -37 0
-11 -40 0
-12 -33 0
-12 -39 0
-12 -40 0
-13 -31 0
-13 -32 0
-13 -35 0
-13 -37 0
-13 -38 0
-13 -39 0
-14 -31 0
-14 -36 0
-14 -40 0
-15 -33 0
-15 -36 0
-15 -38 0
-15 -39 0
-16 -34 0
-16 -35 0
-16 -37 0
-17 -31 0
-17 -33 0
-17 -36 0
-17 -38 0
-17 -39 0
-17 -40 0
-18 -33 0
-18 -35 0
-18 -37 0
-18 -39 0
-19 -32 0
-19 -33 0
-19 -35 0
-19 -37 0
-19 -38 0
-20 -31 0
-20 -32 0
-20 -34 0
-20 -37 0
-21 -13 0
-21 -14 0
-21 -17 0
-21 -20 0
-22 -13 0
-22 -19 0
-22 -20 0
-23 -11 0
-23 -12 0
-23 -15 0
-23 -17 0
-23 -18 0
-23 -19 0
-24 -11 0
-24 -16 0
-24 -20 0
-25 -13 0
-25 -16 0
-25 -18 0
-25 -19 0
-26 -14 0
-26 -15 0
-26 -17 0
-27 -11 0
-27 -13 0
-27 -16 0
-27 -18 0
-27 -19 0
-27 -20 0
-28 -13 0
-28 -15 0
-28 -17 0
-28 -19 0
-29 -12 0
-29 -13 0
-29 -15 0
-29 -17 0
-29 -18 0
-30 -11 0
-30 -12 0
-30 -14 0
-30 -17 0
-21 -33 0
-21 -34 0
-21 -37 0
-21 -40 0
-22 -33 0
-22 -39 0
-22 -40 0
-23 -31 0
-23 -32 0
-23 -35 0
-23 -37 0
-23 -38 0
-23 -39 0
-24 -31 0
-24 -36 0
-24 -40 0
-25 -33 0
-25 -36 0
-25 -38 0
-25 -39 0
-26 -34 0
-26 -35 0
-26 -37 0
-27 -31 0
-27 -33 0
-27 -36 0
-27 -38 0
-27 -39 0
-27 -40 0
-28 -33 0
-28 -35 0
-28 -37 0
-28 -39 0
-29 -32 0
-29 -33 0
-29 -35 0
-29 -37 0
-29 -38 0
-30 -31 0
-30 -32 0
-30 -34 0
-30 -37 0
-31 -13 0
-31 -14 0
-31 -17 0
-31 -20 0
-32 -13 0
-32 -19 0
-32 -20 0
-33 -11 0
-33 -12 0
-33 -15 0
-33 -17 0
-33 -18 0
-33 -19 0
-34 -11 0
-34 -16 0
-34 -20 0
-35 -13 0
-35 -16 0
-35 -18 0
-35 -19 0
-36 -14 0
-36 -15 0
-36 -17 0
-37 -11 0
-37 -13 0
-37 -16 0
-37 -18 0
-37 -19 0
-37 -20 0
-38 -13 0
-38 -15 0
-38 -17 0
-38 -19 0
-39 -12 0
-39 -13 0
-39 -15 0
-39 -17 0
-39 -18 0
-40 -11 0
-40 -12 0
-40 -14 0
-40 -17 0
-31 -23 0
-31 -24 0
-31 -27 0
-31 -30 0
-32 -23 0
-32 -29 0
-32 -30 0
-33 -21 0
-33 -22 0
-33 -25 0
-33 -27 0
-33 -28 0
-33 -29 0
-34 -21 0
-34 -26 0
-34 -30 0
-35 -23 0
-35 -26 0
-35 -28 0
-35 -29 0
-36 -24 0
-36 -25 0
-36 -27 0
-37 -21 0
-37 -23 0
-37 -26 0
-37 -28 0
-37 -29 0
-37 -30 0
-38 -23 0
-38 -25 0
-38 -27 0
-38 -29 0
-39 -22 0
-39 -23 0
-39 -25 0
-39 -27 0
-39 -28 0
-40 -21 0
-40 -22 0
-40 -24 0
-40 -27 0
